nProcs = 4;
nTasks = 12;
variables = 22;
cc=[
[0,0,0,0],
[48,40,21,30],
[7,5,20,22],
[27,16,40,25],
[7,16,30,5],
[48,40,21,30],
[7,5,20,22],
[27,16,40,25],
[7,16,30,5],
[27,16,40,25],
[7,16,30,5],
[0,0,0,0]];

var_exec = [
[0,0],
[8,80],
[10,100],
[4,40],
[8,80],
[4,40],
[5,50],
[10,100],
[3,33],
[2,20],
[1,15],
[8,80],
[10,100],
[4,40],
[8,80],
[4,40],
[5,50],
[10,100],
[3,33],
[2,22],
[1,11],
[0,0]
];

//task_id--size--freq--var_id
data_requirements={
<1,	 0,	 0,	 1>,
<2,	 8,  6,	 2>,
<2,  13, 15, 3>,
<3,  10,  4,  4>,
<3,  4,  2,  5>,
<3,  4,  4,  6>,
<3,	 8,  6,	 7>,
<4,	 17, 15, 8>,
<4,  5,  4,  9>,
<5,  4,  2,  10>,
<5,  9,  4,  11>,
<6,  8,  6,	 12>,
<6,  13, 15, 13>,
<6,  20,  4,  14>,
<7,  21,  2,  15>,
<7,  4,  4,  16>,
<8   8,  6,  17>,
<8,  13, 15, 18>,
<9,  4,  4,  19>,
<10, 4,  2,  20>,
<11, 4,  4,  21>,
<12, 0,  0,  22>
};

//processors,size of spm
spm_proc = {
<1,15>,
<2,20>,
<3,40>,
<4,33>
};

nEdges= 16;
snode = [1,1,1,2,3,3,4,5,6,7,8,8,8,9,10,11];
tnode = [2,3,4,5,5,6,7,8,8,8,9,10,11,12,12,12];
com =   [0,0,0,4,3,2,5,12,12,3,4,7,6,0,0,0];